NAME : Random_TSP_Instance
TYPE : TSP
DIMENSION : 10
EDGE_WEIGHT_TYPE : EXPLICIT
EDGE_WEIGHT_FORMAT : FULL_MATRIX
NODE_COORD_TYPE : NO_COORDS
DISPLAY_DATA_TYPE: TWOD_DISPLAY
EDGE_WEIGHT_SECTION
0.000000 1667399.133218 1667399.133218 1667399.133218 92.439836 1667399.133218 1667399.133218 1667399.133218 90.674609 1667399.133218
1667399.133218 0.000000 1667399.133218 1667399.133218 1667399.133218 1667399.133218 43.802919 1667399.133218 57.683453 1667399.133218
1667399.133218 1667399.133218 0.000000 67.711757 42.830906 1667399.133218 1667399.133218 1667399.133218 1667399.133218 1667399.133218
1667399.133218 1667399.133218 67.711757 0.000000 1667399.133218 1667399.133218 1667399.133218 1667399.133218 1667399.133218 99.604253
92.439836 1667399.133218 42.830906 1667399.133218 0.000000 1667399.133218 1667399.133218 1667399.133218 1667399.133218 1667399.133218
1667399.133218 1667399.133218 1667399.133218 1667399.133218 1667399.133218 0.000000 1667399.133218 10.737656 1667399.133218 51.903147
1667399.133218 43.802919 1667399.133218 1667399.133218 1667399.133218 1667399.133218 0.000000 63.642961 1667399.133218 1667399.133218
1667399.133218 1667399.133218 1667399.133218 1667399.133218 1667399.133218 10.737656 63.642961 0.000000 1667399.133218 1667399.133218
90.674609 57.683453 1667399.133218 1667399.133218 1667399.133218 1667399.133218 1667399.133218 1667399.133218 0.000000 1667399.133218
1667399.133218 1667399.133218 1667399.133218 99.604253 1667399.133218 51.903147 1667399.133218 1667399.133218 1667399.133218 0.000000
EOF
